
%FILE DATA:	Soccer Computational Problem for MiniZinc Models	%
%AUTHOR:	Jack Wall	%
%CONTACT:  	116397063@umail.ucc.ie			%
%LAST UPDATE:	03/03/2020, 12:12:28						%
%DESCRIPTION: 	45 games played with 27 games left				%


n=9; %number of teams

%Games to play
games=[|3,1|5,4|2,5|9,5|9,7|6,5|2,7|7,6|2,4|5,3|8,5|1,4|2,1|3,2|9,1|4,8|6,9|8,6|5,1|9,2|5,9|3,7|4,6|7,1|7,9|4,3|5,6|];

%Initial points
iPoints=[16,8,18,8,11,16,13,19,16];

%POSITION CONSTRAINTS
% [|teamID, operator, position|...]
% operators index:
%  1 for =  operator
%  2 for >  operator
%  3 for >= operator
%  4 for <  operator
%  5 for <= operator
positionConstraints=[|5,1,1|3,3,2|6,2,2|9,5,4|2,5,5|];